************************************************************************
file with basedata            : mm4_.bas
initial value random generator: 479127362
************************************************************************
projects                      :  1
jobs (incl. supersource/sink ):  12
horizon                       :  74
RESOURCES
  - renewable                 :  2   R
  - nonrenewable              :  2   N
  - doubly constrained        :  0   D
************************************************************************
PROJECT INFORMATION:
pronr.  #jobs rel.date duedate tardcost  MPM-Time
    1     10      0       12        7       12
************************************************************************
PRECEDENCE RELATIONS:
jobnr.    #modes  #successors   successors
   0        1          3           1   2   3
   1        3          1           8
   2        3          3           7   8   9
   3        3          2           4   5
   4        3          2           7   8
   5        3          2           6   9
   6        3          1          10
   7        3          1          10
   8        3          1          11
   9        3          1          11
  10        3          1          11
  11        1          0        
************************************************************************
REQUESTS/DURATIONS:
jobnr. mode duration  R 1  R 2  R 3  R 4  E(W 1)  E(W 2)  E(W 3)
------------------------------------------------------------------------
  0      1     0       0    0    0    0     0       0       0
  1      1     6       0    8    0    5    48       0      30
  2      1     2       0    3    5    0     6      10       0
  3      1     3       7    0    4    0    21      12       0
  4      1     7       3    0    5    0    21      35       0
  5      1     1       0    6    0    5     6       0       5
  6      1     4       1    0    0    6     8       0      24
  7      1     1       8    0    3    0     8       3       0
  8      1     2       6    0    7    0    12      14       0
  9      1     6       0   10    0    6    60       0      36
 10      1     1       0    9    0    8     9       0       8
 11      1     0       0    0    0    0     0       0       0
************************************************************************
RESOURCEAVAILABILITIES:
  R 1  R 2  R 3
   16   37   39
************************************************************************
RESOURCE LIMITS:
jobnr.  l(R 1)  u(R 1)  l(R 2)  u(R 2)  l(R 3)  u(R 3)
------------------------------------------------------------------------
  0        0       0       0       0       0       0
  1        4       8       0       0       3       5
  2        2       3       3       5       0       0
  3        4       7       2       4       0       0
  4        2       3       3       5       0       0
  5        3       6       0       0       3       5
  6        1       2       0       0       3       6
  7        4       8       2       3       0       0
  8        3       6       4       7       0       0
  9        5      10       0       0       3       6
 10        5       9       0       0       4       8
 11        0       0       0       0       0       0
************************************************************************
SCENARIOS:
------------------------------------------------------------------------
RESOURCE k = 1
s = 1: (0, 30, 7, 17, 22, 4, 6, 7, 15, 63, 12, 0)
s = 2: (0, 70, 7, 28, 16, 7, 11, 7, 10, 38, 7, 0)
s = 3: (0, 72, 8, 21, 18, 9, 10, 10, 20, 62, 7, 0)
s = 4: (0, 56, 7, 31, 17, 5, 7, 8, 13, 32, 7, 0)
s = 5: (0, 61, 5, 14, 15, 5, 7, 6, 14, 70, 7, 0)
s = 6: (0, 59, 5, 21, 22, 7, 5, 7, 13, 85, 9, 0)
s = 7: (0, 72, 6, 12, 22, 5, 6, 5, 17, 44, 7, 0)
s = 8: (0, 41, 8, 16, 22, 8, 12, 6, 16, 51, 9, 0)
s = 9: (0, 46, 5, 21, 17, 7, 7, 11, 16, 90, 9, 0)
s = 10: (0, 39, 4, 17, 20, 4, 9, 8, 15, 65, 9, 0)
s = 11: (0, 53, 7, 23, 20, 5, 15, 10, 8, 51, 7, 0)
s = 12: (0, 59, 6, 14, 15, 5, 6, 11, 20, 63, 10, 0)
s = 13: (0, 31, 6, 13, 15, 8, 7, 5, 18, 39, 9, 0)
s = 14: (0, 52, 5, 22, 25, 7, 8, 8, 19, 94, 10, 0)
s = 15: (0, 27, 6, 18, 33, 4, 12, 7, 11, 53, 12, 0)
s = 16: (0, 38, 8, 18, 17, 7, 13, 8, 9, 45, 7, 0)
s = 17: (0, 46, 6, 13, 18, 5, 9, 10, 11, 52, 6, 0)
s = 18: (0, 31, 6, 20, 25, 9, 8, 8, 12, 57, 13, 0)
s = 19: (0, 30, 4, 22, 22, 6, 8, 6, 12, 37, 12, 0)
s = 20: (0, 74, 5, 13, 31, 4, 11, 9, 17, 81, 14, 0)
s = 21: (0, 56, 8, 27, 33, 4, 14, 11, 14, 77, 12, 0)
s = 22: (0, 61, 6, 29, 20, 6, 8, 7, 13, 34, 10, 0)
s = 23: (0, 28, 9, 20, 20, 4, 6, 11, 15, 70, 9, 0)
s = 24: (0, 39, 10, 18, 21, 8, 7, 7, 12, 55, 6, 0)
s = 25: (0, 69, 7, 15, 15, 5, 12, 11, 10, 46, 8, 0)
s = 26: (0, 81, 6, 15, 22, 5, 10, 9, 13, 41, 12, 0)
s = 27: (0, 38, 7, 23, 12, 12, 9, 5, 10, 72, 14, 0)
s = 28: (0, 47, 7, 20, 19, 4, 7, 8, 12, 63, 8, 0)
s = 29: (0, 45, 5, 24, 14, 7, 13, 11, 10, 58, 7, 0)
s = 30: (0, 59, 7, 16, 12, 8, 12, 7, 20, 44, 11, 0)
s = 31: (0, 56, 6, 18, 31, 5, 10, 13, 15, 38, 10, 0)
s = 32: (0, 52, 6, 14, 14, 11, 6, 10, 9, 67, 9, 0)
s = 33: (0, 82, 6, 24, 25, 10, 7, 11, 15, 56, 9, 0)
s = 34: (0, 29, 11, 21, 16, 8, 6, 8, 9, 40, 10, 0)
s = 35: (0, 51, 6, 17, 18, 8, 8, 5, 11, 34, 8, 0)
s = 36: (0, 66, 6, 16, 29, 8, 7, 8, 15, 73, 12, 0)
s = 37: (0, 52, 7, 36, 31, 5, 5, 8, 17, 68, 10, 0)
s = 38: (0, 42, 7, 16, 13, 5, 9, 7, 13, 107, 10, 0)
s = 39: (0, 54, 8, 18, 18, 7, 10, 7, 13, 57, 10, 0)
s = 40: (0, 65, 6, 24, 19, 5, 10, 11, 18, 83, 11, 0)
s = 41: (0, 51, 7, 22, 19, 8, 8, 11, 13, 125, 12, 0)
s = 42: (0, 37, 5, 24, 24, 7, 7, 10, 15, 71, 15, 0)
s = 43: (0, 43, 4, 18, 19, 6, 7, 8, 11, 42, 10, 0)
s = 44: (0, 49, 5, 25, 21, 6, 12, 11, 18, 59, 11, 0)
s = 45: (0, 45, 6, 17, 29, 7, 10, 9, 16, 77, 9, 0)
s = 46: (0, 34, 6, 12, 30, 12, 7, 12, 12, 61, 14, 0)
s = 47: (0, 55, 8, 19, 14, 9, 7, 10, 9, 55, 15, 0)
s = 48: (0, 25, 5, 18, 17, 5, 7, 9, 12, 71, 9, 0)
s = 49: (0, 56, 7, 17, 15, 6, 5, 12, 11, 55, 11, 0)
s = 50: (0, 35, 5, 23, 22, 5, 11, 12, 7, 51, 9, 0)
s = 51: (0, 71, 5, 17, 27, 8, 9, 7, 10, 40, 7, 0)
s = 52: (0, 52, 8, 22, 26, 7, 9, 14, 18, 60, 16, 0)
s = 53: (0, 36, 5, 20, 18, 5, 10, 5, 16, 112, 11, 0)
s = 54: (0, 48, 5, 23, 24, 8, 12, 12, 17, 40, 6, 0)
s = 55: (0, 53, 5, 16, 13, 6, 9, 12, 12, 44, 9, 0)
s = 56: (0, 63, 7, 19, 17, 7, 11, 6, 11, 41, 5, 0)
s = 57: (0, 35, 6, 12, 18, 7, 7, 10, 14, 52, 10, 0)
s = 58: (0, 55, 7, 33, 29, 5, 14, 9, 13, 37, 9, 0)
s = 59: (0, 51, 9, 28, 27, 7, 9, 8, 9, 33, 7, 0)
s = 60: (0, 31, 7, 20, 16, 8, 5, 8, 8, 91, 9, 0)
s = 61: (0, 52, 5, 14, 20, 9, 12, 7, 16, 87, 8, 0)
s = 62: (0, 49, 8, 20, 12, 5, 8, 8, 13, 46, 13, 0)
s = 63: (0, 61, 6, 12, 17, 8, 7, 18, 18, 34, 9, 0)
s = 64: (0, 30, 5, 14, 33, 8, 8, 10, 11, 77, 10, 0)
s = 65: (0, 44, 6, 15, 15, 12, 8, 7, 13, 47, 7, 0)
s = 66: (0, 49, 8, 23, 32, 5, 7, 7, 13, 35, 11, 0)
s = 67: (0, 57, 4, 18, 14, 5, 6, 8, 7, 40, 13, 0)
s = 68: (0, 67, 8, 18, 14, 7, 9, 5, 12, 73, 6, 0)
s = 69: (0, 42, 6, 21, 17, 7, 5, 8, 14, 76, 11, 0)
s = 70: (0, 47, 10, 31, 16, 8, 7, 6, 10, 33, 8, 0)
s = 71: (0, 41, 5, 20, 28, 4, 6, 10, 13, 51, 6, 0)
s = 72: (0, 54, 9, 20, 16, 8, 13, 6, 10, 45, 12, 0)
s = 73: (0, 67, 9, 16, 20, 7, 10, 14, 18, 36, 9, 0)
s = 74: (0, 41, 5, 16, 25, 4, 6, 7, 18, 45, 7, 0)
s = 75: (0, 61, 7, 22, 23, 5, 11, 7, 12, 44, 9, 0)
s = 76: (0, 35, 6, 22, 20, 7, 9, 9, 13, 97, 11, 0)
s = 77: (0, 33, 7, 18, 30, 7, 7, 6, 12, 68, 8, 0)
s = 78: (0, 34, 5, 16, 26, 11, 9, 11, 19, 56, 7, 0)
s = 79: (0, 33, 5, 41, 16, 5, 8, 6, 15, 53, 9, 0)
s = 80: (0, 70, 7, 16, 30, 6, 11, 8, 12, 81, 8, 0)
s = 81: (0, 30, 6, 17, 21, 6, 11, 6, 10, 87, 6, 0)
s = 82: (0, 42, 7, 18, 24, 7, 7, 8, 17, 43, 9, 0)
s = 83: (0, 68, 7, 17, 17, 7, 8, 7, 14, 52, 13, 0)
s = 84: (0, 35, 7, 20, 15, 10, 10, 8, 9, 55, 6, 0)
s = 85: (0, 55, 10, 20, 26, 4, 6, 7, 12, 49, 7, 0)
s = 86: (0, 36, 5, 27, 23, 5, 9, 9, 11, 44, 15, 0)
s = 87: (0, 64, 6, 29, 19, 6, 7, 6, 11, 89, 7, 0)
s = 88: (0, 62, 5, 35, 29, 7, 10, 10, 13, 98, 11, 0)
s = 89: (0, 50, 6, 14, 30, 10, 9, 8, 11, 48, 12, 0)
s = 90: (0, 62, 7, 39, 27, 5, 9, 12, 12, 58, 14, 0)
s = 91: (0, 50, 7, 17, 13, 8, 8, 9, 9, 38, 12, 0)
s = 92: (0, 41, 6, 31, 25, 7, 6, 6, 23, 80, 13, 0)
s = 93: (0, 55, 6, 22, 23, 6, 10, 10, 10, 34, 15, 0)
s = 94: (0, 47, 5, 36, 24, 8, 8, 12, 8, 48, 9, 0)
s = 95: (0, 44, 5, 17, 18, 10, 11, 5, 11, 61, 6, 0)
s = 96: (0, 37, 7, 25, 19, 6, 5, 10, 9, 43, 14, 0)
s = 97: (0, 44, 5, 25, 19, 7, 9, 9, 15, 37, 7, 0)
s = 98: (0, 52, 6, 15, 30, 6, 13, 10, 14, 62, 13, 0)
s = 99: (0, 59, 9, 31, 29, 8, 11, 8, 10, 52, 11, 0)
s = 100: (0, 44, 9, 17, 19, 6, 9, 8, 15, 48, 7, 0)
s = 101: (0, 62, 10, 26, 20, 6, 5, 11, 13, 62, 8, 0)
s = 102: (0, 60, 8, 21, 14, 7, 8, 5, 14, 58, 13, 0)
s = 103: (0, 68, 6, 19, 29, 5, 12, 9, 18, 37, 6, 0)
s = 104: (0, 48, 7, 28, 24, 6, 7, 9, 11, 90, 13, 0)
s = 105: (0, 59, 8, 15, 15, 8, 10, 5, 13, 58, 11, 0)
s = 106: (0, 42, 10, 24, 30, 9, 14, 9, 9, 57, 11, 0)
s = 107: (0, 46, 8, 18, 30, 4, 9, 8, 9, 47, 6, 0)
s = 108: (0, 48, 6, 18, 16, 6, 6, 14, 23, 67, 13, 0)
s = 109: (0, 80, 6, 21, 26, 7, 5, 12, 9, 74, 7, 0)
s = 110: (0, 41, 8, 15, 31, 5, 12, 10, 12, 42, 9, 0)
s = 111: (0, 48, 8, 28, 26, 12, 8, 6, 19, 92, 9, 0)
s = 112: (0, 41, 5, 25, 23, 5, 7, 11, 13, 54, 7, 0)
s = 113: (0, 70, 7, 15, 35, 4, 9, 13, 14, 45, 11, 0)
s = 114: (0, 47, 6, 23, 18, 7, 10, 10, 14, 41, 10, 0)
s = 115: (0, 54, 7, 29, 23, 10, 12, 6, 19, 63, 13, 0)
s = 116: (0, 45, 5, 18, 21, 5, 6, 13, 16, 54, 6, 0)
s = 117: (0, 35, 6, 21, 25, 6, 10, 9, 11, 45, 11, 0)
s = 118: (0, 31, 5, 17, 19, 8, 7, 6, 11, 68, 9, 0)
s = 119: (0, 58, 9, 22, 24, 7, 7, 10, 12, 41, 8, 0)
s = 120: (0, 32, 8, 26, 14, 6, 6, 10, 12, 49, 13, 0)
s = 121: (0, 37, 4, 32, 28, 6, 7, 6, 9, 72, 12, 0)
s = 122: (0, 63, 5, 21, 16, 7, 8, 10, 19, 58, 6, 0)
s = 123: (0, 41, 5, 21, 21, 4, 11, 7, 14, 59, 10, 0)
s = 124: (0, 47, 5, 12, 25, 6, 8, 10, 8, 41, 9, 0)
s = 125: (0, 53, 9, 26, 21, 7, 10, 9, 12, 52, 7, 0)
s = 126: (0, 37, 8, 19, 22, 10, 11, 13, 11, 42, 10, 0)
s = 127: (0, 53, 7, 27, 30, 11, 8, 7, 8, 79, 6, 0)
s = 128: (0, 53, 7, 18, 21, 7, 9, 11, 12, 39, 14, 0)
s = 129: (0, 32, 8, 20, 20, 5, 14, 11, 8, 40, 7, 0)
s = 130: (0, 67, 8, 19, 16, 5, 7, 5, 9, 61, 6, 0)
s = 131: (0, 58, 11, 13, 23, 4, 7, 10, 10, 42, 8, 0)
s = 132: (0, 34, 6, 21, 23, 6, 6, 8, 10, 74, 11, 0)
s = 133: (0, 39, 9, 17, 26, 6, 12, 10, 8, 66, 8, 0)
s = 134: (0, 49, 4, 27, 21, 9, 7, 6, 14, 57, 7, 0)
s = 135: (0, 52, 9, 21, 19, 8, 8, 6, 16, 74, 11, 0)
s = 136: (0, 41, 7, 29, 15, 6, 7, 6, 10, 74, 6, 0)
s = 137: (0, 51, 6, 15, 31, 11, 11, 13, 13, 79, 12, 0)
s = 138: (0, 80, 7, 16, 17, 5, 7, 7, 8, 70, 8, 0)
s = 139: (0, 65, 6, 34, 19, 5, 7, 9, 19, 74, 11, 0)
s = 140: (0, 55, 5, 18, 27, 7, 8, 10, 12, 73, 6, 0)
s = 141: (0, 62, 6, 15, 35, 8, 8, 6, 17, 50, 8, 0)
s = 142: (0, 31, 7, 15, 23, 7, 7, 12, 17, 43, 8, 0)
s = 143: (0, 34, 7, 19, 30, 7, 8, 9, 9, 61, 7, 0)
s = 144: (0, 68, 5, 22, 15, 5, 8, 5, 12, 65, 6, 0)
s = 145: (0, 74, 10, 28, 16, 5, 9, 10, 16, 44, 13, 0)
s = 146: (0, 47, 8, 17, 37, 8, 11, 7, 15, 59, 11, 0)
s = 147: (0, 35, 6, 13, 14, 5, 9, 6, 18, 42, 6, 0)
s = 148: (0, 33, 10, 16, 16, 9, 13, 5, 13, 53, 15, 0)
s = 149: (0, 81, 8, 22, 20, 4, 7, 7, 9, 80, 7, 0)
s = 150: (0, 59, 4, 24, 16, 7, 7, 10, 13, 61, 8, 0)
s = 151: (0, 46, 5, 13, 15, 8, 9, 6, 11, 48, 10, 0)
s = 152: (0, 34, 7, 21, 18, 7, 10, 7, 10, 66, 12, 0)
s = 153: (0, 57, 4, 14, 18, 8, 6, 7, 14, 43, 7, 0)
s = 154: (0, 85, 8, 31, 14, 11, 6, 6, 11, 77, 14, 0)
s = 155: (0, 34, 9, 16, 20, 4, 7, 7, 9, 46, 6, 0)
s = 156: (0, 45, 8, 16, 27, 5, 12, 8, 9, 58, 6, 0)
s = 157: (0, 52, 6, 28, 18, 8, 9, 7, 13, 71, 11, 0)
s = 158: (0, 47, 4, 15, 20, 6, 12, 5, 13, 62, 7, 0)
s = 159: (0, 72, 7, 19, 24, 6, 13, 6, 14, 92, 9, 0)
s = 160: (0, 53, 8, 22, 18, 10, 7, 6, 17, 51, 12, 0)
s = 161: (0, 72, 6, 21, 38, 7, 6, 8, 10, 60, 9, 0)
s = 162: (0, 35, 9, 36, 23, 8, 9, 8, 18, 74, 9, 0)
s = 163: (0, 34, 9, 23, 20, 8, 9, 8, 15, 63, 13, 0)
s = 164: (0, 46, 8, 16, 16, 4, 5, 7, 12, 36, 6, 0)
s = 165: (0, 73, 5, 20, 17, 5, 7, 7, 10, 75, 9, 0)
s = 166: (0, 56, 8, 24, 27, 9, 7, 9, 18, 84, 10, 0)
s = 167: (0, 63, 6, 21, 21, 6, 7, 7, 11, 43, 14, 0)
s = 168: (0, 67, 9, 15, 27, 5, 11, 11, 8, 58, 13, 0)
s = 169: (0, 77, 9, 32, 25, 8, 7, 7, 9, 65, 7, 0)
s = 170: (0, 49, 6, 15, 16, 9, 12, 8, 15, 33, 16, 0)
s = 171: (0, 26, 7, 15, 28, 8, 5, 10, 16, 96, 8, 0)
s = 172: (0, 49, 6, 18, 40, 5, 8, 10, 12, 61, 10, 0)
s = 173: (0, 76, 4, 30, 29, 6, 8, 6, 13, 54, 10, 0)
s = 174: (0, 84, 10, 15, 23, 6, 7, 6, 9, 96, 7, 0)
s = 175: (0, 58, 6, 22, 26, 5, 10, 7, 8, 47, 14, 0)
s = 176: (0, 33, 9, 22, 27, 9, 9, 8, 11, 56, 9, 0)
s = 177: (0, 31, 4, 24, 27, 7, 8, 5, 12, 44, 7, 0)
s = 178: (0, 38, 5, 35, 26, 7, 9, 11, 11, 40, 10, 0)
s = 179: (0, 45, 5, 18, 25, 7, 9, 6, 13, 50, 7, 0)
s = 180: (0, 65, 5, 25, 32, 5, 5, 11, 10, 55, 7, 0)
s = 181: (0, 53, 8, 14, 30, 8, 7, 6, 14, 80, 9, 0)
s = 182: (0, 55, 8, 15, 19, 9, 6, 6, 14, 104, 13, 0)
s = 183: (0, 30, 6, 13, 23, 7, 7, 9, 17, 56, 7, 0)
s = 184: (0, 72, 6, 23, 19, 9, 7, 12, 16, 61, 11, 0)
s = 185: (0, 44, 5, 15, 24, 7, 11, 7, 12, 46, 6, 0)
s = 186: (0, 34, 7, 30, 16, 5, 9, 10, 9, 55, 8, 0)
s = 187: (0, 31, 4, 18, 31, 7, 10, 10, 11, 41, 11, 0)
s = 188: (0, 55, 8, 14, 31, 6, 7, 10, 9, 99, 12, 0)
s = 189: (0, 49, 4, 31, 18, 4, 8, 5, 14, 59, 7, 0)
s = 190: (0, 40, 6, 22, 25, 5, 13, 5, 16, 67, 11, 0)
s = 191: (0, 40, 7, 28, 16, 5, 6, 6, 17, 63, 9, 0)
s = 192: (0, 49, 5, 23, 36, 7, 10, 15, 13, 73, 14, 0)
s = 193: (0, 29, 5, 21, 22, 10, 10, 5, 14, 51, 9, 0)
s = 194: (0, 61, 5, 17, 27, 10, 10, 8, 9, 74, 9, 0)
s = 195: (0, 59, 7, 16, 35, 5, 5, 6, 12, 37, 7, 0)
s = 196: (0, 54, 7, 16, 24, 6, 13, 13, 9, 66, 11, 0)
s = 197: (0, 37, 5, 20, 22, 5, 9, 11, 11, 41, 10, 0)
s = 198: (0, 54, 7, 21, 21, 8, 7, 6, 11, 87, 11, 0)
s = 199: (0, 46, 7, 17, 28, 10, 7, 8, 16, 73, 14, 0)
s = 200: (0, 61, 7, 25, 24, 9, 13, 11, 10, 53, 9, 0)
------------------------------------------------------------------------
RESOURCE k = 2
s = 1: (0, 0, 11, 10, 36, 0, 0, 3, 17, 0, 0, 0)
s = 2: (0, 0, 11, 16, 26, 0, 0, 3, 12, 0, 0, 0)
s = 3: (0, 0, 13, 12, 29, 0, 0, 4, 23, 0, 0, 0)
s = 4: (0, 0, 12, 18, 28, 0, 0, 3, 15, 0, 0, 0)
s = 5: (0, 0, 7, 8, 25, 0, 0, 3, 16, 0, 0, 0)
s = 6: (0, 0, 9, 12, 37, 0, 0, 3, 16, 0, 0, 0)
s = 7: (0, 0, 9, 7, 36, 0, 0, 2, 19, 0, 0, 0)
s = 8: (0, 0, 13, 9, 37, 0, 0, 2, 18, 0, 0, 0)
s = 9: (0, 0, 8, 12, 28, 0, 0, 4, 18, 0, 0, 0)
s = 10: (0, 0, 6, 10, 33, 0, 0, 3, 17, 0, 0, 0)
s = 11: (0, 0, 11, 13, 32, 0, 0, 4, 10, 0, 0, 0)
s = 12: (0, 0, 9, 8, 25, 0, 0, 5, 23, 0, 0, 0)
s = 13: (0, 0, 9, 8, 24, 0, 0, 2, 21, 0, 0, 0)
s = 14: (0, 0, 7, 13, 41, 0, 0, 3, 22, 0, 0, 0)
s = 15: (0, 0, 9, 11, 55, 0, 0, 3, 13, 0, 0, 0)
s = 16: (0, 0, 14, 11, 29, 0, 0, 3, 10, 0, 0, 0)
s = 17: (0, 0, 10, 8, 30, 0, 0, 4, 12, 0, 0, 0)
s = 18: (0, 0, 10, 12, 41, 0, 0, 3, 14, 0, 0, 0)
s = 19: (0, 0, 7, 13, 37, 0, 0, 3, 14, 0, 0, 0)
s = 20: (0, 0, 7, 8, 51, 0, 0, 4, 19, 0, 0, 0)
s = 21: (0, 0, 14, 16, 55, 0, 0, 4, 17, 0, 0, 0)
s = 22: (0, 0, 10, 17, 33, 0, 0, 3, 15, 0, 0, 0)
s = 23: (0, 0, 14, 12, 32, 0, 0, 4, 17, 0, 0, 0)
s = 24: (0, 0, 16, 11, 35, 0, 0, 3, 14, 0, 0, 0)
s = 25: (0, 0, 11, 9, 25, 0, 0, 5, 12, 0, 0, 0)
s = 26: (0, 0, 9, 9, 37, 0, 0, 4, 15, 0, 0, 0)
s = 27: (0, 0, 11, 13, 20, 0, 0, 2, 12, 0, 0, 0)
s = 28: (0, 0, 12, 12, 32, 0, 0, 3, 14, 0, 0, 0)
s = 29: (0, 0, 8, 14, 24, 0, 0, 4, 12, 0, 0, 0)
s = 30: (0, 0, 11, 9, 19, 0, 0, 3, 23, 0, 0, 0)
s = 31: (0, 0, 9, 10, 51, 0, 0, 5, 17, 0, 0, 0)
s = 32: (0, 0, 9, 8, 22, 0, 0, 4, 10, 0, 0, 0)
s = 33: (0, 0, 9, 14, 41, 0, 0, 4, 17, 0, 0, 0)
s = 34: (0, 0, 18, 12, 26, 0, 0, 3, 10, 0, 0, 0)
s = 35: (0, 0, 10, 10, 30, 0, 0, 2, 13, 0, 0, 0)
s = 36: (0, 0, 9, 9, 48, 0, 0, 3, 18, 0, 0, 0)
s = 37: (0, 0, 12, 21, 52, 0, 0, 3, 20, 0, 0, 0)
s = 38: (0, 0, 11, 9, 22, 0, 0, 3, 15, 0, 0, 0)
s = 39: (0, 0, 12, 11, 29, 0, 0, 3, 15, 0, 0, 0)
s = 40: (0, 0, 10, 14, 32, 0, 0, 4, 20, 0, 0, 0)
s = 41: (0, 0, 11, 13, 31, 0, 0, 5, 15, 0, 0, 0)
s = 42: (0, 0, 9, 14, 39, 0, 0, 4, 18, 0, 0, 0)
s = 43: (0, 0, 6, 11, 31, 0, 0, 3, 13, 0, 0, 0)
s = 44: (0, 0, 8, 15, 35, 0, 0, 4, 20, 0, 0, 0)
s = 45: (0, 0, 10, 10, 47, 0, 0, 4, 19, 0, 0, 0)
s = 46: (0, 0, 9, 7, 49, 0, 0, 5, 14, 0, 0, 0)
s = 47: (0, 0, 13, 11, 23, 0, 0, 4, 11, 0, 0, 0)
s = 48: (0, 0, 7, 11, 27, 0, 0, 4, 14, 0, 0, 0)
s = 49: (0, 0, 11, 10, 25, 0, 0, 5, 12, 0, 0, 0)
s = 50: (0, 0, 8, 13, 37, 0, 0, 5, 9, 0, 0, 0)
s = 51: (0, 0, 8, 10, 44, 0, 0, 3, 11, 0, 0, 0)
s = 52: (0, 0, 13, 13, 44, 0, 0, 6, 21, 0, 0, 0)
s = 53: (0, 0, 8, 12, 30, 0, 0, 2, 18, 0, 0, 0)
s = 54: (0, 0, 8, 13, 39, 0, 0, 5, 19, 0, 0, 0)
s = 55: (0, 0, 7, 9, 21, 0, 0, 5, 14, 0, 0, 0)
s = 56: (0, 0, 11, 11, 27, 0, 0, 2, 13, 0, 0, 0)
s = 57: (0, 0, 10, 7, 29, 0, 0, 4, 16, 0, 0, 0)
s = 58: (0, 0, 12, 19, 48, 0, 0, 4, 15, 0, 0, 0)
s = 59: (0, 0, 14, 16, 44, 0, 0, 3, 10, 0, 0, 0)
s = 60: (0, 0, 11, 12, 27, 0, 0, 3, 10, 0, 0, 0)
s = 61: (0, 0, 8, 8, 34, 0, 0, 3, 18, 0, 0, 0)
s = 62: (0, 0, 12, 12, 19, 0, 0, 3, 15, 0, 0, 0)
s = 63: (0, 0, 10, 7, 28, 0, 0, 7, 20, 0, 0, 0)
s = 64: (0, 0, 7, 8, 55, 0, 0, 4, 13, 0, 0, 0)
s = 65: (0, 0, 10, 9, 24, 0, 0, 3, 15, 0, 0, 0)
s = 66: (0, 0, 14, 13, 53, 0, 0, 3, 16, 0, 0, 0)
s = 67: (0, 0, 7, 11, 23, 0, 0, 3, 8, 0, 0, 0)
s = 68: (0, 0, 13, 11, 22, 0, 0, 2, 14, 0, 0, 0)
s = 69: (0, 0, 10, 12, 28, 0, 0, 3, 16, 0, 0, 0)
s = 70: (0, 0, 17, 18, 27, 0, 0, 2, 11, 0, 0, 0)
s = 71: (0, 0, 8, 12, 47, 0, 0, 4, 15, 0, 0, 0)
s = 72: (0, 0, 15, 12, 26, 0, 0, 2, 11, 0, 0, 0)
s = 73: (0, 0, 15, 10, 33, 0, 0, 6, 21, 0, 0, 0)
s = 74: (0, 0, 8, 9, 41, 0, 0, 3, 20, 0, 0, 0)
s = 75: (0, 0, 11, 13, 37, 0, 0, 3, 14, 0, 0, 0)
s = 76: (0, 0, 9, 13, 33, 0, 0, 4, 15, 0, 0, 0)
s = 77: (0, 0, 11, 10, 49, 0, 0, 2, 13, 0, 0, 0)
s = 78: (0, 0, 8, 9, 43, 0, 0, 5, 22, 0, 0, 0)
s = 79: (0, 0, 8, 24, 27, 0, 0, 3, 18, 0, 0, 0)
s = 80: (0, 0, 12, 10, 49, 0, 0, 3, 14, 0, 0, 0)
s = 81: (0, 0, 9, 10, 35, 0, 0, 3, 12, 0, 0, 0)
s = 82: (0, 0, 11, 11, 40, 0, 0, 3, 20, 0, 0, 0)
s = 83: (0, 0, 12, 10, 28, 0, 0, 3, 16, 0, 0, 0)
s = 84: (0, 0, 11, 12, 25, 0, 0, 3, 11, 0, 0, 0)
s = 85: (0, 0, 16, 12, 43, 0, 0, 3, 13, 0, 0, 0)
s = 86: (0, 0, 8, 15, 38, 0, 0, 4, 13, 0, 0, 0)
s = 87: (0, 0, 10, 17, 32, 0, 0, 3, 13, 0, 0, 0)
s = 88: (0, 0, 7, 20, 47, 0, 0, 4, 15, 0, 0, 0)
s = 89: (0, 0, 10, 8, 50, 0, 0, 3, 12, 0, 0, 0)
s = 90: (0, 0, 12, 22, 44, 0, 0, 5, 14, 0, 0, 0)
s = 91: (0, 0, 11, 10, 21, 0, 0, 4, 10, 0, 0, 0)
s = 92: (0, 0, 10, 18, 42, 0, 0, 3, 27, 0, 0, 0)
s = 93: (0, 0, 10, 13, 39, 0, 0, 4, 12, 0, 0, 0)
s = 94: (0, 0, 8, 21, 40, 0, 0, 5, 9, 0, 0, 0)
s = 95: (0, 0, 7, 10, 30, 0, 0, 2, 12, 0, 0, 0)
s = 96: (0, 0, 12, 14, 32, 0, 0, 4, 11, 0, 0, 0)
s = 97: (0, 0, 8, 15, 31, 0, 0, 4, 17, 0, 0, 0)
s = 98: (0, 0, 10, 9, 50, 0, 0, 4, 17, 0, 0, 0)
s = 99: (0, 0, 15, 18, 48, 0, 0, 3, 12, 0, 0, 0)
s = 100: (0, 0, 15, 10, 32, 0, 0, 3, 17, 0, 0, 0)
s = 101: (0, 0, 16, 15, 34, 0, 0, 4, 15, 0, 0, 0)
s = 102: (0, 0, 13, 12, 24, 0, 0, 2, 16, 0, 0, 0)
s = 103: (0, 0, 9, 11, 49, 0, 0, 4, 21, 0, 0, 0)
s = 104: (0, 0, 11, 16, 39, 0, 0, 4, 13, 0, 0, 0)
s = 105: (0, 0, 12, 9, 24, 0, 0, 2, 15, 0, 0, 0)
s = 106: (0, 0, 16, 14, 49, 0, 0, 4, 10, 0, 0, 0)
s = 107: (0, 0, 13, 10, 50, 0, 0, 3, 11, 0, 0, 0)
s = 108: (0, 0, 9, 10, 27, 0, 0, 6, 26, 0, 0, 0)
s = 109: (0, 0, 10, 12, 43, 0, 0, 5, 11, 0, 0, 0)
s = 110: (0, 0, 12, 9, 52, 0, 0, 4, 14, 0, 0, 0)
s = 111: (0, 0, 13, 16, 43, 0, 0, 3, 22, 0, 0, 0)
s = 112: (0, 0, 8, 14, 39, 0, 0, 4, 15, 0, 0, 0)
s = 113: (0, 0, 11, 9, 57, 0, 0, 5, 16, 0, 0, 0)
s = 114: (0, 0, 9, 13, 30, 0, 0, 4, 16, 0, 0, 0)
s = 115: (0, 0, 11, 17, 38, 0, 0, 3, 22, 0, 0, 0)
s = 116: (0, 0, 7, 11, 35, 0, 0, 5, 19, 0, 0, 0)
s = 117: (0, 0, 10, 12, 42, 0, 0, 4, 13, 0, 0, 0)
s = 118: (0, 0, 7, 10, 31, 0, 0, 3, 12, 0, 0, 0)
s = 119: (0, 0, 14, 13, 39, 0, 0, 4, 14, 0, 0, 0)
s = 120: (0, 0, 12, 15, 23, 0, 0, 4, 14, 0, 0, 0)
s = 121: (0, 0, 6, 19, 47, 0, 0, 3, 11, 0, 0, 0)
s = 122: (0, 0, 8, 12, 27, 0, 0, 4, 22, 0, 0, 0)
s = 123: (0, 0, 9, 12, 34, 0, 0, 3, 16, 0, 0, 0)
s = 124: (0, 0, 8, 7, 41, 0, 0, 4, 10, 0, 0, 0)
s = 125: (0, 0, 15, 15, 35, 0, 0, 4, 14, 0, 0, 0)
s = 126: (0, 0, 13, 11, 36, 0, 0, 5, 13, 0, 0, 0)
s = 127: (0, 0, 12, 16, 50, 0, 0, 3, 9, 0, 0, 0)
s = 128: (0, 0, 11, 11, 35, 0, 0, 4, 13, 0, 0, 0)
s = 129: (0, 0, 13, 12, 34, 0, 0, 5, 10, 0, 0, 0)
s = 130: (0, 0, 13, 11, 27, 0, 0, 2, 10, 0, 0, 0)
s = 131: (0, 0, 18, 8, 38, 0, 0, 4, 11, 0, 0, 0)
s = 132: (0, 0, 10, 12, 37, 0, 0, 3, 12, 0, 0, 0)
s = 133: (0, 0, 15, 10, 43, 0, 0, 4, 9, 0, 0, 0)
s = 134: (0, 0, 7, 16, 34, 0, 0, 3, 16, 0, 0, 0)
s = 135: (0, 0, 14, 12, 32, 0, 0, 3, 18, 0, 0, 0)
s = 136: (0, 0, 12, 17, 25, 0, 0, 3, 11, 0, 0, 0)
s = 137: (0, 0, 10, 9, 52, 0, 0, 5, 15, 0, 0, 0)
s = 138: (0, 0, 11, 9, 28, 0, 0, 3, 10, 0, 0, 0)
s = 139: (0, 0, 9, 19, 32, 0, 0, 4, 22, 0, 0, 0)
s = 140: (0, 0, 8, 10, 45, 0, 0, 4, 14, 0, 0, 0)
s = 141: (0, 0, 10, 9, 59, 0, 0, 3, 20, 0, 0, 0)
s = 142: (0, 0, 11, 9, 39, 0, 0, 5, 20, 0, 0, 0)
s = 143: (0, 0, 12, 11, 50, 0, 0, 4, 10, 0, 0, 0)
s = 144: (0, 0, 8, 13, 24, 0, 0, 2, 14, 0, 0, 0)
s = 145: (0, 0, 16, 16, 27, 0, 0, 4, 19, 0, 0, 0)
s = 146: (0, 0, 13, 10, 62, 0, 0, 3, 18, 0, 0, 0)
s = 147: (0, 0, 10, 8, 23, 0, 0, 2, 21, 0, 0, 0)
s = 148: (0, 0, 16, 10, 27, 0, 0, 2, 15, 0, 0, 0)
s = 149: (0, 0, 13, 13, 34, 0, 0, 3, 11, 0, 0, 0)
s = 150: (0, 0, 7, 14, 27, 0, 0, 4, 16, 0, 0, 0)
s = 151: (0, 0, 8, 8, 25, 0, 0, 3, 13, 0, 0, 0)
s = 152: (0, 0, 12, 12, 30, 0, 0, 3, 11, 0, 0, 0)
s = 153: (0, 0, 7, 8, 30, 0, 0, 3, 17, 0, 0, 0)
s = 154: (0, 0, 14, 18, 24, 0, 0, 3, 12, 0, 0, 0)
s = 155: (0, 0, 15, 10, 34, 0, 0, 3, 10, 0, 0, 0)
s = 156: (0, 0, 13, 9, 45, 0, 0, 3, 11, 0, 0, 0)
s = 157: (0, 0, 9, 16, 29, 0, 0, 3, 15, 0, 0, 0)
s = 158: (0, 0, 6, 9, 33, 0, 0, 2, 15, 0, 0, 0)
s = 159: (0, 0, 11, 11, 40, 0, 0, 2, 17, 0, 0, 0)
s = 160: (0, 0, 13, 13, 30, 0, 0, 3, 20, 0, 0, 0)
s = 161: (0, 0, 10, 12, 63, 0, 0, 3, 12, 0, 0, 0)
s = 162: (0, 0, 14, 21, 39, 0, 0, 3, 21, 0, 0, 0)
s = 163: (0, 0, 15, 13, 32, 0, 0, 3, 17, 0, 0, 0)
s = 164: (0, 0, 13, 9, 26, 0, 0, 3, 14, 0, 0, 0)
s = 165: (0, 0, 8, 12, 28, 0, 0, 3, 11, 0, 0, 0)
s = 166: (0, 0, 13, 14, 45, 0, 0, 4, 21, 0, 0, 0)
s = 167: (0, 0, 10, 12, 34, 0, 0, 3, 12, 0, 0, 0)
s = 168: (0, 0, 14, 9, 45, 0, 0, 4, 9, 0, 0, 0)
s = 169: (0, 0, 14, 18, 41, 0, 0, 3, 11, 0, 0, 0)
s = 170: (0, 0, 9, 9, 27, 0, 0, 3, 17, 0, 0, 0)
s = 171: (0, 0, 11, 9, 46, 0, 0, 4, 18, 0, 0, 0)
s = 172: (0, 0, 10, 11, 67, 0, 0, 4, 14, 0, 0, 0)
s = 173: (0, 0, 6, 17, 48, 0, 0, 3, 15, 0, 0, 0)
s = 174: (0, 0, 16, 9, 37, 0, 0, 3, 10, 0, 0, 0)
s = 175: (0, 0, 9, 13, 43, 0, 0, 3, 10, 0, 0, 0)
s = 176: (0, 0, 14, 13, 44, 0, 0, 3, 13, 0, 0, 0)
s = 177: (0, 0, 7, 14, 45, 0, 0, 2, 13, 0, 0, 0)
s = 178: (0, 0, 8, 20, 43, 0, 0, 4, 12, 0, 0, 0)
s = 179: (0, 0, 8, 11, 41, 0, 0, 2, 15, 0, 0, 0)
s = 180: (0, 0, 8, 15, 54, 0, 0, 4, 12, 0, 0, 0)
s = 181: (0, 0, 13, 8, 49, 0, 0, 2, 16, 0, 0, 0)
s = 182: (0, 0, 13, 9, 31, 0, 0, 3, 17, 0, 0, 0)
s = 183: (0, 0, 10, 8, 38, 0, 0, 4, 20, 0, 0, 0)
s = 184: (0, 0, 9, 13, 32, 0, 0, 5, 18, 0, 0, 0)
s = 185: (0, 0, 8, 9, 39, 0, 0, 3, 13, 0, 0, 0)
s = 186: (0, 0, 11, 17, 27, 0, 0, 4, 10, 0, 0, 0)
s = 187: (0, 0, 6, 10, 51, 0, 0, 4, 13, 0, 0, 0)
s = 188: (0, 0, 13, 8, 51, 0, 0, 4, 10, 0, 0, 0)
s = 189: (0, 0, 6, 18, 30, 0, 0, 2, 16, 0, 0, 0)
s = 190: (0, 0, 9, 13, 41, 0, 0, 2, 18, 0, 0, 0)
s = 191: (0, 0, 12, 16, 26, 0, 0, 3, 20, 0, 0, 0)
s = 192: (0, 0, 8, 13, 60, 0, 0, 6, 15, 0, 0, 0)
s = 193: (0, 0, 8, 12, 36, 0, 0, 2, 16, 0, 0, 0)
s = 194: (0, 0, 7, 10, 45, 0, 0, 3, 10, 0, 0, 0)
s = 195: (0, 0, 11, 9, 58, 0, 0, 3, 13, 0, 0, 0)
s = 196: (0, 0, 11, 9, 40, 0, 0, 5, 10, 0, 0, 0)
s = 197: (0, 0, 7, 11, 36, 0, 0, 4, 12, 0, 0, 0)
s = 198: (0, 0, 12, 12, 35, 0, 0, 3, 13, 0, 0, 0)
s = 199: (0, 0, 11, 10, 47, 0, 0, 3, 18, 0, 0, 0)
s = 200: (0, 0, 11, 14, 40, 0, 0, 4, 12, 0, 0, 0)
------------------------------------------------------------------------
RESOURCE k = 3
s = 1: (0, 19, 0, 0, 0, 4, 17, 0, 0, 38, 11, 0)
s = 2: (0, 44, 0, 0, 0, 6, 32, 0, 0, 23, 6, 0)
s = 3: (0, 45, 0, 0, 0, 8, 28, 0, 0, 38, 6, 0)
s = 4: (0, 35, 0, 0, 0, 4, 19, 0, 0, 19, 6, 0)
s = 5: (0, 38, 0, 0, 0, 4, 19, 0, 0, 42, 6, 0)
s = 6: (0, 37, 0, 0, 0, 6, 15, 0, 0, 51, 8, 0)
s = 7: (0, 45, 0, 0, 0, 4, 17, 0, 0, 27, 6, 0)
s = 8: (0, 26, 0, 0, 0, 7, 36, 0, 0, 31, 8, 0)
s = 9: (0, 29, 0, 0, 0, 6, 21, 0, 0, 54, 8, 0)
s = 10: (0, 25, 0, 0, 0, 3, 25, 0, 0, 39, 8, 0)
s = 11: (0, 33, 0, 0, 0, 4, 43, 0, 0, 31, 6, 0)
s = 12: (0, 37, 0, 0, 0, 4, 16, 0, 0, 38, 9, 0)
s = 13: (0, 19, 0, 0, 0, 7, 21, 0, 0, 24, 8, 0)
s = 14: (0, 33, 0, 0, 0, 6, 24, 0, 0, 57, 9, 0)
s = 15: (0, 17, 0, 0, 0, 4, 36, 0, 0, 32, 11, 0)
s = 16: (0, 24, 0, 0, 0, 6, 38, 0, 0, 27, 6, 0)
s = 17: (0, 29, 0, 0, 0, 4, 26, 0, 0, 32, 5, 0)
s = 18: (0, 19, 0, 0, 0, 7, 22, 0, 0, 34, 12, 0)
s = 19: (0, 19, 0, 0, 0, 5, 22, 0, 0, 22, 10, 0)
s = 20: (0, 47, 0, 0, 0, 4, 31, 0, 0, 49, 13, 0)
s = 21: (0, 35, 0, 0, 0, 3, 40, 0, 0, 46, 11, 0)
s = 22: (0, 38, 0, 0, 0, 5, 22, 0, 0, 21, 9, 0)
s = 23: (0, 18, 0, 0, 0, 3, 17, 0, 0, 42, 8, 0)
s = 24: (0, 24, 0, 0, 0, 6, 20, 0, 0, 33, 5, 0)
s = 25: (0, 43, 0, 0, 0, 5, 35, 0, 0, 28, 8, 0)
s = 26: (0, 51, 0, 0, 0, 4, 30, 0, 0, 25, 11, 0)
s = 27: (0, 24, 0, 0, 0, 10, 26, 0, 0, 43, 12, 0)
s = 28: (0, 30, 0, 0, 0, 4, 21, 0, 0, 38, 7, 0)
s = 29: (0, 28, 0, 0, 0, 6, 37, 0, 0, 35, 6, 0)
s = 30: (0, 37, 0, 0, 0, 7, 34, 0, 0, 27, 10, 0)
s = 31: (0, 35, 0, 0, 0, 4, 28, 0, 0, 23, 9, 0)
s = 32: (0, 33, 0, 0, 0, 10, 18, 0, 0, 40, 8, 0)
s = 33: (0, 52, 0, 0, 0, 8, 19, 0, 0, 34, 8, 0)
s = 34: (0, 18, 0, 0, 0, 6, 16, 0, 0, 24, 9, 0)
s = 35: (0, 32, 0, 0, 0, 6, 23, 0, 0, 20, 7, 0)
s = 36: (0, 41, 0, 0, 0, 7, 21, 0, 0, 44, 11, 0)
s = 37: (0, 32, 0, 0, 0, 4, 13, 0, 0, 41, 9, 0)
s = 38: (0, 26, 0, 0, 0, 5, 26, 0, 0, 64, 9, 0)
s = 39: (0, 34, 0, 0, 0, 6, 30, 0, 0, 34, 9, 0)
s = 40: (0, 41, 0, 0, 0, 4, 29, 0, 0, 50, 9, 0)
s = 41: (0, 32, 0, 0, 0, 7, 22, 0, 0, 75, 11, 0)
s = 42: (0, 23, 0, 0, 0, 6, 19, 0, 0, 43, 13, 0)
s = 43: (0, 27, 0, 0, 0, 5, 19, 0, 0, 25, 9, 0)
s = 44: (0, 31, 0, 0, 0, 5, 35, 0, 0, 36, 10, 0)
s = 45: (0, 28, 0, 0, 0, 6, 29, 0, 0, 47, 8, 0)
s = 46: (0, 21, 0, 0, 0, 10, 21, 0, 0, 37, 12, 0)
s = 47: (0, 34, 0, 0, 0, 8, 21, 0, 0, 33, 14, 0)
s = 48: (0, 16, 0, 0, 0, 4, 21, 0, 0, 43, 8, 0)
s = 49: (0, 35, 0, 0, 0, 5, 15, 0, 0, 33, 10, 0)
s = 50: (0, 22, 0, 0, 0, 4, 33, 0, 0, 31, 8, 0)
s = 51: (0, 44, 0, 0, 0, 7, 25, 0, 0, 24, 7, 0)
s = 52: (0, 32, 0, 0, 0, 6, 27, 0, 0, 36, 14, 0)
s = 53: (0, 23, 0, 0, 0, 4, 29, 0, 0, 67, 10, 0)
s = 54: (0, 30, 0, 0, 0, 7, 36, 0, 0, 24, 5, 0)
s = 55: (0, 33, 0, 0, 0, 5, 27, 0, 0, 27, 8, 0)
s = 56: (0, 40, 0, 0, 0, 6, 31, 0, 0, 25, 5, 0)
s = 57: (0, 22, 0, 0, 0, 6, 21, 0, 0, 31, 9, 0)
s = 58: (0, 35, 0, 0, 0, 4, 41, 0, 0, 22, 8, 0)
s = 59: (0, 32, 0, 0, 0, 6, 27, 0, 0, 20, 7, 0)
s = 60: (0, 19, 0, 0, 0, 7, 14, 0, 0, 55, 8, 0)
s = 61: (0, 33, 0, 0, 0, 7, 34, 0, 0, 53, 7, 0)
s = 62: (0, 31, 0, 0, 0, 4, 22, 0, 0, 28, 12, 0)
s = 63: (0, 38, 0, 0, 0, 7, 21, 0, 0, 21, 8, 0)
s = 64: (0, 19, 0, 0, 0, 7, 23, 0, 0, 46, 9, 0)
s = 65: (0, 28, 0, 0, 0, 10, 23, 0, 0, 28, 6, 0)
s = 66: (0, 31, 0, 0, 0, 5, 20, 0, 0, 21, 9, 0)
s = 67: (0, 36, 0, 0, 0, 5, 16, 0, 0, 24, 12, 0)
s = 68: (0, 42, 0, 0, 0, 6, 27, 0, 0, 44, 5, 0)
s = 69: (0, 26, 0, 0, 0, 6, 15, 0, 0, 46, 9, 0)
s = 70: (0, 30, 0, 0, 0, 7, 19, 0, 0, 20, 7, 0)
s = 71: (0, 26, 0, 0, 0, 3, 18, 0, 0, 31, 5, 0)
s = 72: (0, 34, 0, 0, 0, 7, 38, 0, 0, 27, 11, 0)
s = 73: (0, 42, 0, 0, 0, 6, 30, 0, 0, 22, 8, 0)
s = 74: (0, 26, 0, 0, 0, 3, 18, 0, 0, 27, 7, 0)
s = 75: (0, 38, 0, 0, 0, 5, 31, 0, 0, 26, 8, 0)
s = 76: (0, 22, 0, 0, 0, 6, 26, 0, 0, 58, 10, 0)
s = 77: (0, 21, 0, 0, 0, 6, 20, 0, 0, 41, 7, 0)
s = 78: (0, 21, 0, 0, 0, 10, 25, 0, 0, 34, 6, 0)
s = 79: (0, 21, 0, 0, 0, 4, 24, 0, 0, 32, 8, 0)
s = 80: (0, 44, 0, 0, 0, 5, 33, 0, 0, 49, 7, 0)
s = 81: (0, 19, 0, 0, 0, 5, 31, 0, 0, 53, 6, 0)
s = 82: (0, 26, 0, 0, 0, 6, 20, 0, 0, 26, 8, 0)
s = 83: (0, 43, 0, 0, 0, 6, 23, 0, 0, 32, 12, 0)
s = 84: (0, 22, 0, 0, 0, 8, 30, 0, 0, 33, 6, 0)
s = 85: (0, 35, 0, 0, 0, 3, 16, 0, 0, 30, 7, 0)
s = 86: (0, 23, 0, 0, 0, 4, 26, 0, 0, 27, 13, 0)
s = 87: (0, 40, 0, 0, 0, 5, 20, 0, 0, 53, 6, 0)
s = 88: (0, 39, 0, 0, 0, 6, 28, 0, 0, 59, 10, 0)
s = 89: (0, 31, 0, 0, 0, 9, 26, 0, 0, 29, 10, 0)
s = 90: (0, 39, 0, 0, 0, 4, 26, 0, 0, 35, 13, 0)
s = 91: (0, 32, 0, 0, 0, 7, 23, 0, 0, 23, 10, 0)
s = 92: (0, 26, 0, 0, 0, 6, 18, 0, 0, 48, 12, 0)
s = 93: (0, 35, 0, 0, 0, 5, 29, 0, 0, 20, 13, 0)
s = 94: (0, 29, 0, 0, 0, 7, 22, 0, 0, 29, 8, 0)
s = 95: (0, 28, 0, 0, 0, 8, 32, 0, 0, 37, 5, 0)
s = 96: (0, 23, 0, 0, 0, 5, 15, 0, 0, 26, 12, 0)
s = 97: (0, 28, 0, 0, 0, 6, 25, 0, 0, 23, 7, 0)
s = 98: (0, 33, 0, 0, 0, 5, 38, 0, 0, 37, 11, 0)
s = 99: (0, 37, 0, 0, 0, 6, 33, 0, 0, 31, 10, 0)
s = 100: (0, 28, 0, 0, 0, 5, 25, 0, 0, 29, 6, 0)
s = 101: (0, 39, 0, 0, 0, 5, 15, 0, 0, 37, 7, 0)
s = 102: (0, 38, 0, 0, 0, 6, 23, 0, 0, 35, 11, 0)
s = 103: (0, 43, 0, 0, 0, 4, 35, 0, 0, 22, 6, 0)
s = 104: (0, 30, 0, 0, 0, 5, 20, 0, 0, 54, 12, 0)
s = 105: (0, 37, 0, 0, 0, 7, 28, 0, 0, 35, 10, 0)
s = 106: (0, 26, 0, 0, 0, 7, 41, 0, 0, 35, 10, 0)
s = 107: (0, 29, 0, 0, 0, 3, 26, 0, 0, 29, 6, 0)
s = 108: (0, 30, 0, 0, 0, 5, 17, 0, 0, 40, 12, 0)
s = 109: (0, 50, 0, 0, 0, 6, 15, 0, 0, 45, 6, 0)
s = 110: (0, 26, 0, 0, 0, 4, 36, 0, 0, 26, 8, 0)
s = 111: (0, 30, 0, 0, 0, 10, 23, 0, 0, 56, 8, 0)
s = 112: (0, 26, 0, 0, 0, 5, 20, 0, 0, 32, 6, 0)
s = 113: (0, 44, 0, 0, 0, 3, 27, 0, 0, 27, 10, 0)
s = 114: (0, 29, 0, 0, 0, 6, 28, 0, 0, 25, 9, 0)
s = 115: (0, 34, 0, 0, 0, 9, 34, 0, 0, 38, 11, 0)
s = 116: (0, 28, 0, 0, 0, 4, 18, 0, 0, 32, 5, 0)
s = 117: (0, 22, 0, 0, 0, 5, 30, 0, 0, 27, 10, 0)
s = 118: (0, 20, 0, 0, 0, 7, 19, 0, 0, 41, 8, 0)
s = 119: (0, 36, 0, 0, 0, 6, 19, 0, 0, 25, 7, 0)
s = 120: (0, 20, 0, 0, 0, 5, 16, 0, 0, 30, 11, 0)
s = 121: (0, 23, 0, 0, 0, 5, 21, 0, 0, 43, 11, 0)
s = 122: (0, 39, 0, 0, 0, 6, 24, 0, 0, 35, 6, 0)
s = 123: (0, 26, 0, 0, 0, 4, 31, 0, 0, 35, 9, 0)
s = 124: (0, 30, 0, 0, 0, 5, 23, 0, 0, 25, 8, 0)
s = 125: (0, 33, 0, 0, 0, 6, 30, 0, 0, 32, 7, 0)
s = 126: (0, 24, 0, 0, 0, 8, 31, 0, 0, 25, 9, 0)
s = 127: (0, 34, 0, 0, 0, 9, 22, 0, 0, 48, 6, 0)
s = 128: (0, 34, 0, 0, 0, 6, 25, 0, 0, 24, 13, 0)
s = 129: (0, 20, 0, 0, 0, 5, 40, 0, 0, 24, 6, 0)
s = 130: (0, 42, 0, 0, 0, 4, 19, 0, 0, 37, 6, 0)
s = 131: (0, 37, 0, 0, 0, 4, 20, 0, 0, 26, 8, 0)
s = 132: (0, 21, 0, 0, 0, 5, 16, 0, 0, 44, 10, 0)
s = 133: (0, 25, 0, 0, 0, 5, 35, 0, 0, 40, 7, 0)
s = 134: (0, 31, 0, 0, 0, 8, 20, 0, 0, 35, 6, 0)
s = 135: (0, 33, 0, 0, 0, 7, 24, 0, 0, 45, 10, 0)
s = 136: (0, 26, 0, 0, 0, 5, 21, 0, 0, 45, 6, 0)
s = 137: (0, 32, 0, 0, 0, 9, 33, 0, 0, 48, 10, 0)
s = 138: (0, 50, 0, 0, 0, 4, 21, 0, 0, 42, 7, 0)
s = 139: (0, 41, 0, 0, 0, 4, 19, 0, 0, 45, 10, 0)
s = 140: (0, 35, 0, 0, 0, 6, 24, 0, 0, 44, 5, 0)
s = 141: (0, 39, 0, 0, 0, 7, 23, 0, 0, 30, 8, 0)
s = 142: (0, 20, 0, 0, 0, 6, 20, 0, 0, 26, 7, 0)
s = 143: (0, 21, 0, 0, 0, 6, 22, 0, 0, 37, 6, 0)
s = 144: (0, 43, 0, 0, 0, 4, 23, 0, 0, 39, 6, 0)
s = 145: (0, 46, 0, 0, 0, 4, 27, 0, 0, 26, 12, 0)
s = 146: (0, 30, 0, 0, 0, 6, 32, 0, 0, 35, 10, 0)
s = 147: (0, 22, 0, 0, 0, 4, 26, 0, 0, 25, 5, 0)
s = 148: (0, 21, 0, 0, 0, 8, 37, 0, 0, 32, 14, 0)
s = 149: (0, 51, 0, 0, 0, 3, 21, 0, 0, 48, 6, 0)
s = 150: (0, 37, 0, 0, 0, 6, 20, 0, 0, 37, 7, 0)
s = 151: (0, 29, 0, 0, 0, 6, 27, 0, 0, 29, 9, 0)
s = 152: (0, 21, 0, 0, 0, 6, 28, 0, 0, 40, 11, 0)
s = 153: (0, 36, 0, 0, 0, 7, 17, 0, 0, 26, 6, 0)
s = 154: (0, 53, 0, 0, 0, 9, 16, 0, 0, 46, 12, 0)
s = 155: (0, 21, 0, 0, 0, 4, 19, 0, 0, 28, 6, 0)
s = 156: (0, 28, 0, 0, 0, 4, 34, 0, 0, 35, 5, 0)
s = 157: (0, 33, 0, 0, 0, 7, 26, 0, 0, 43, 10, 0)
s = 158: (0, 30, 0, 0, 0, 5, 35, 0, 0, 38, 6, 0)
s = 159: (0, 45, 0, 0, 0, 5, 39, 0, 0, 55, 8, 0)
s = 160: (0, 33, 0, 0, 0, 9, 21, 0, 0, 31, 10, 0)
s = 161: (0, 45, 0, 0, 0, 6, 16, 0, 0, 36, 8, 0)
s = 162: (0, 22, 0, 0, 0, 7, 26, 0, 0, 44, 8, 0)
s = 163: (0, 21, 0, 0, 0, 6, 27, 0, 0, 38, 12, 0)
s = 164: (0, 29, 0, 0, 0, 3, 15, 0, 0, 22, 5, 0)
s = 165: (0, 46, 0, 0, 0, 4, 21, 0, 0, 45, 8, 0)
s = 166: (0, 35, 0, 0, 0, 7, 19, 0, 0, 50, 9, 0)
s = 167: (0, 40, 0, 0, 0, 5, 21, 0, 0, 26, 13, 0)
s = 168: (0, 42, 0, 0, 0, 4, 31, 0, 0, 35, 12, 0)
s = 169: (0, 48, 0, 0, 0, 7, 19, 0, 0, 39, 6, 0)
s = 170: (0, 31, 0, 0, 0, 7, 35, 0, 0, 20, 14, 0)
s = 171: (0, 16, 0, 0, 0, 7, 15, 0, 0, 58, 7, 0)
s = 172: (0, 31, 0, 0, 0, 4, 23, 0, 0, 37, 9, 0)
s = 173: (0, 48, 0, 0, 0, 5, 23, 0, 0, 33, 9, 0)
s = 174: (0, 53, 0, 0, 0, 5, 20, 0, 0, 58, 6, 0)
s = 175: (0, 37, 0, 0, 0, 4, 30, 0, 0, 28, 13, 0)
s = 176: (0, 21, 0, 0, 0, 7, 25, 0, 0, 34, 8, 0)
s = 177: (0, 20, 0, 0, 0, 6, 23, 0, 0, 26, 6, 0)
s = 178: (0, 24, 0, 0, 0, 6, 27, 0, 0, 24, 9, 0)
s = 179: (0, 29, 0, 0, 0, 6, 27, 0, 0, 30, 6, 0)
s = 180: (0, 41, 0, 0, 0, 4, 15, 0, 0, 33, 6, 0)
s = 181: (0, 33, 0, 0, 0, 7, 19, 0, 0, 48, 8, 0)
s = 182: (0, 34, 0, 0, 0, 8, 18, 0, 0, 63, 12, 0)
s = 183: (0, 19, 0, 0, 0, 6, 19, 0, 0, 34, 7, 0)
s = 184: (0, 45, 0, 0, 0, 7, 21, 0, 0, 37, 10, 0)
s = 185: (0, 28, 0, 0, 0, 6, 31, 0, 0, 28, 5, 0)
s = 186: (0, 21, 0, 0, 0, 4, 27, 0, 0, 33, 7, 0)
s = 187: (0, 20, 0, 0, 0, 6, 28, 0, 0, 25, 10, 0)
s = 188: (0, 34, 0, 0, 0, 5, 21, 0, 0, 60, 11, 0)
s = 189: (0, 31, 0, 0, 0, 3, 22, 0, 0, 36, 6, 0)
s = 190: (0, 25, 0, 0, 0, 5, 38, 0, 0, 41, 10, 0)
s = 191: (0, 25, 0, 0, 0, 4, 17, 0, 0, 38, 8, 0)
s = 192: (0, 31, 0, 0, 0, 6, 28, 0, 0, 44, 13, 0)
s = 193: (0, 18, 0, 0, 0, 8, 30, 0, 0, 31, 8, 0)
s = 194: (0, 38, 0, 0, 0, 9, 28, 0, 0, 44, 8, 0)
s = 195: (0, 37, 0, 0, 0, 4, 15, 0, 0, 22, 7, 0)
s = 196: (0, 34, 0, 0, 0, 5, 39, 0, 0, 40, 10, 0)
s = 197: (0, 23, 0, 0, 0, 4, 26, 0, 0, 25, 9, 0)
s = 198: (0, 34, 0, 0, 0, 7, 21, 0, 0, 53, 9, 0)
s = 199: (0, 29, 0, 0, 0, 9, 19, 0, 0, 44, 12, 0)
s = 200: (0, 38, 0, 0, 0, 7, 37, 0, 0, 32, 8, 0)
************************************************************************
ES/LS-VALUES:
jobnr.   ES(i)    LS(i)
------------------------------------------------------------------------
  0        0        0
  1        0       59
  2        0       57
  3        0       49
  4        6       55
  5        6       59
  6        8       64
  7       19       69
  8       19       70
  9        8       61
 10       21       72
 11       22       74
************************************************************************
BIG-M-VALUES:
M1 = 61, M2 = 231
************************************************************************
